TYPE: ATSP
DIMENSION: 12
FORMAT: FULL_MATRIX
OPT: 202
DATA_SECTION
0 14 25 33 48 21 37 43 19 45 29 34
18 0 36 41 23 50 20 30 38 44 32 27
40 24 0 31 28 39 22 15 42 25 30 19
35 47 29 0 13 27 45 37 50 28 22 41
44 32 17 26 0 33 30 48 36 20 18 23
38 21 45 34 16 0 27 19 50 42 11 31
28 40 19 25 47 34 0 24 43 38 12 18
21 31 36 27 50 46 33 0 20 19 39 17
19 28 22 45 31 37 29 40 0 23 15 30
41 24 38 30 21 12 18 50 27 0 31 42
34 44 28 18 22 45 17 23 50 41 0 29
27 39 31 41 24 28 21 37 30 25 19 0
EOF

